DIMENSION: 12
EDGE_WEIGHT_TYPE: EXPLICIT
EDGE_WEIGHT_FORMAT: FULL_MATRIX
EDGE_WEIGHT_SECTION:
32767 32767 20 9 32767 95 32767 32767 32767 32767 32767 32767 
32767 32767 32767 32767 32767 32767 81 32767 32767 32767 32767 32767 
20 32767 32767 32767 47 32767 32767 84 71 32767 5 32767 
9 32767 32767 32767 29 32767 94 5 36 90 32767 32767 
32767 32767 47 29 32767 32767 60 53 3 32767 89 32767 
95 32767 32767 32767 32767 32767 32767 69 32767 25 32767 32767 
32767 81 32767 94 60 32767 32767 45 98 32767 32767 32767 
32767 32767 84 5 53 69 45 32767 32767 95 52 32767 
32767 32767 71 36 3 32767 98 32767 32767 11 22 32767 
32767 32767 32767 90 32767 25 32767 95 11 32767 32767 32767 
32767 32767 5 32767 89 32767 32767 52 22 32767 32767 8 
32767 32767 32767 32767 32767 32767 32767 32767 32767 32767 8 32767 
EOF